%SETS
JOBS     = 1..4;
MACHINES = 1..6;
SPEED    = 1;

time               = array3d(JOBS,MACHINES,1..SPEED,[49, 90, 96, 44, 81, 57, 61, 93, 16, 17, 11, 84, 80, 88, 98, 81, 51, 80, 20, 67, 22, 95, 56, 47]);
energy             = array3d(JOBS,MACHINES,1..SPEED,[61, 40, 38, 64, 44, 56, 54, 39, 85, 84, 89, 43, 44, 41, 37, 44, 60, 44, 81, 51, 80, 38, 57, 62]);
precedence         = array2d(JOBS,MACHINES,[2,0,3,5,1,4,5,2,1,0,3,4,5,3,0,1,4,2,2,1,5,3,0,4]);